RAW/CMTX/fspd/CMT9X.vrp_seed-8.out
1160.682024	20.125	35.69
