RAW/CMTX/fspd/CMT9X.vrp_seed-8.sol
Route #1: 11 126 16 127 53 129 29 79 21 118 130 50 78
Route #2: 63 17 147 92 42 93 65 107 44 137 37
Route #3: 119 1 120 80 70 28 31 82 140 8 81
Route #4: 122 125 106 73 117 89 39 54 10 5
Route #5: 76 49 104 30 105 75 74 34 9 62 38
Route #6: 108 52 15 45 91 72 33 124 123 71 90 103
Route #7: 100 2 83 131 20 59 3 101 22 51 32 77
Route #8: 97 86 43 99 114 113 26 60
Route #9: 46 102 6 57 23 69 7 61 112 48 138 27
Route #10: 12 144 109 4 149 146 56 47 139
Route #11: 143 135 111 66 41 136 13 67 134 55 18
Route #12: 128 84 35 85 36 115 121 116
Route #13: 148 141 94 40 88 64 19 150 87 142 145
Route #14: 68 132 98 24 96 95 25 58 14 133 110
Cost 1160.682024